
Gurobi 11.0.3 (win64) logging started Thu Sep  5 11:46:19 2024

Set parameter LogFile to value "C:\Users\ealvarezq\Desktop\L.Cont_Investments_per_hour\IEEE118_mod2_ByStages_nc70/openStarNet_IEEE118_mod2_ByStages_nc70.log"
Set parameter Method to value 2
Set parameter MIPFocus to value 1
Set parameter Presolve to value 2
Set parameter RINS to value 100
Set parameter MIPGap to value 0.01
Set parameter Threads to value 24
Set parameter TimeLimit to value 259200
Set parameter IterationLimit to value 760000000
Gurobi Optimizer version 11.0.3 build v11.0.3rc0 (win64 - Windows Server 2019.0 (17763.2))

CPU model: AMD Ryzen Threadripper PRO 3955WX 16-Cores, instruction set [SSE2|AVX|AVX2]
Thread count: 16 physical cores, 32 logical processors, using up to 24 threads

Optimize a model with 99473 rows, 73677 columns and 256480 nonzeros
Model fingerprint: 0xe51d47d2
Variable types: 73643 continuous, 34 integer (34 binary)
Coefficient statistics:
  Matrix range     [5e-04, 9e+03]
  Objective range  [1e+00, 1e+00]
  Bounds range     [1e-04, 2e+00]
  RHS range        [1e-04, 2e+00]
Presolve removed 67306 rows and 34140 columns
Presolve time: 0.67s
Presolved: 32167 rows, 39537 columns, 117565 nonzeros
Variable types: 39503 continuous, 34 integer (34 binary)
Root relaxation presolved: 32167 rows, 39537 columns, 117565 nonzeros

Root barrier log...

Ordering time: 0.02s

Barrier statistics:
 Dense cols : 34
 AA' NZ     : 1.458e+05
 Factor NZ  : 5.643e+05 (roughly 34 MB of memory)
 Factor Ops : 1.179e+07 (less than 1 second per iteration)
 Threads    : 23

                  Objective                Residual
Iter       Primal          Dual         Primal    Dual     Compl     Time
   0   9.01006896e+06 -1.18855368e+09  1.57e+01 2.95e+03  5.57e+04     2s
   1   2.16395204e+06 -4.58996154e+08  3.44e+00 1.46e-08  1.15e+04     2s
   2   6.14186627e+05 -3.70443942e+08  6.99e-01 1.05e-08  5.14e+03     3s
   3   3.77585192e+05 -6.60744697e+07  2.47e-01 6.31e-09  8.89e+02     3s
   4   2.45915305e+05 -1.32153842e+07  2.23e-02 6.64e-10  1.48e+02     3s
   5   1.83528033e+05 -3.17398498e+06  4.64e-03 1.88e-10  3.57e+01     3s
   6   1.21340668e+05 -7.62146808e+05  1.66e-03 3.93e-11  9.34e+00     3s
   7   5.33797609e+04 -2.01492558e+05  5.87e-04 1.82e-11  2.69e+00     4s
   8   2.02484148e+04 -3.52606994e+04  1.61e-04 1.28e-11  5.85e-01     4s
   9   1.43202785e+04 -2.02981906e+04  1.05e-04 5.49e-12  3.65e-01     4s
  10   9.12368009e+03 -5.67850417e+03  5.93e-05 4.98e-12  1.56e-01     4s
  11   6.04666372e+03 -2.43651126e+03  3.52e-05 9.61e-12  8.94e-02     4s
  12   3.64979584e+03 -9.14369476e+02  1.76e-05 6.93e-12  4.81e-02     4s
  13   2.99676753e+03 -2.24706356e+01  1.30e-05 9.00e-12  3.18e-02     5s
  14   2.22602615e+03  4.91346064e+02  7.76e-06 5.52e-12  1.83e-02     5s
  15   1.67503850e+03  7.99838176e+02  3.98e-06 6.52e-12  9.22e-03     5s
  16   1.49052143e+03  9.18561806e+02  2.75e-06 1.20e-11  6.03e-03     5s
  17   1.30159499e+03  9.71150414e+02  1.51e-06 8.98e-12  3.48e-03     5s
  18   1.20721135e+03  1.00356568e+03  8.97e-07 8.58e-12  2.15e-03     5s
  19   1.15198720e+03  1.02729851e+03  5.35e-07 9.12e-12  1.31e-03     5s
  20   1.11851912e+03  1.04024076e+03  3.23e-07 5.50e-12  8.25e-04     5s
  21   1.09823640e+03  1.05473077e+03  1.93e-07 1.16e-11  4.59e-04     5s
  22   1.07872471e+03  1.06080145e+03  7.26e-08 8.30e-12  1.89e-04     6s
  23   1.07131754e+03  1.06493490e+03  2.81e-08 5.64e-12  6.73e-05     7s
  24   1.06880117e+03  1.06564330e+03  1.36e-08 8.68e-12  3.33e-05     7s
  25   1.06703165e+03  1.06596812e+03  4.27e-09 5.32e-12  1.12e-05     7s
  26   1.06667238e+03  1.06615768e+03  2.39e-09 5.83e-12  5.42e-06     7s
  27   1.06640561e+03  1.06629746e+03  1.69e-09 4.27e-12  1.14e-06     7s
  28   1.06636267e+03  1.06632028e+03  1.25e-09 5.08e-12  4.47e-07     7s
  29   1.06634286e+03  1.06633502e+03  1.86e-09 5.39e-12  8.27e-08     8s
  30   1.06633713e+03  1.06633679e+03  4.65e-09 6.58e-12  3.60e-09     8s
  31   1.06633702e+03  1.06633702e+03  2.67e-09 1.49e-11  2.84e-11     8s

Barrier solved model in 31 iterations and 7.55 seconds (1.11 work units)
Optimal objective 1.06633702e+03


Root crossover log...

    6920 DPushes remaining with DInf 0.0000000e+00                 8s
       0 DPushes remaining with DInf 0.0000000e+00                 8s

     866 PPushes remaining with PInf 0.0000000e+00                 8s
       0 PPushes remaining with PInf 0.0000000e+00                 8s

  Push phase complete: Pinf 0.0000000e+00, Dinf 2.4393487e-11      8s


Root simplex log...

Iteration    Objective       Primal Inf.    Dual Inf.      Time
    2543    1.0663370e+03   0.000000e+00   0.000000e+00      8s
    2543    1.0663370e+03   0.000000e+00   0.000000e+00      8s

Root relaxation: objective 1.066337e+03, 2543 iterations, 7.25 seconds (0.93 work units)

    Nodes    |    Current Node    |     Objective Bounds      |     Work
 Expl Unexpl |  Obj  Depth IntInf | Incumbent    BestBd   Gap | It/Node Time

     0     0 1066.33702    0   23          - 1066.33702      -     -    8s
H    0     0                    6932.8201870 1066.33702  84.6%     -   10s
H    0     0                    3117.2688619 1066.33702  65.8%     -   11s
     0     0 1086.05630    0   22 3117.26886 1086.05630  65.2%     -   14s
H    0     0                    1248.1594029 1086.05630  13.0%     -   15s
     0     0 1086.34186    0   21 1248.15940 1086.34186  13.0%     -   16s
H    0     0                    1247.1168688 1089.87412  12.6%     -   17s
     0     0 1089.87412    0   20 1247.11687 1089.87412  12.6%     -   17s
     0     0 1089.94762    0   20 1247.11687 1089.94762  12.6%     -   19s
     0     0 1089.94775    0   20 1247.11687 1089.94775  12.6%     -   19s
     0     0 1090.24109    0   20 1247.11687 1090.24109  12.6%     -   21s
     0     0 1090.24288    0   19 1247.11687 1090.24288  12.6%     -   22s
     0     0 1091.92182    0   19 1247.11687 1091.92182  12.4%     -   23s
     0     0 1091.92182    0   19 1247.11687 1091.92182  12.4%     -   24s
     0     0 1091.92182    0   19 1247.11687 1091.92182  12.4%     -   25s
H    0     0                    1216.6390841 1091.92182  10.3%     -  209s
     0     2 1091.92182    0   19 1216.63908 1091.92182  10.3%     -  210s
     3     8 1114.52583    2   19 1216.63908 1107.90147  8.94%  1032  216s
    15    26 1184.44833    4   17 1216.63908 1127.01414  7.37%  1317  223s
    29    42 1213.36813    5   15 1216.63908 1133.82970  6.81%  1313  225s
   101    62     cutoff    8      1216.63908 1146.35737  5.78%   766  234s
   125    66     cutoff    8      1216.63908 1149.39568  5.53%   755  236s
   153    76 1199.01487    8   11 1216.63908 1152.49117  5.27%   701  241s
   249    95 1208.50995    9   10 1216.63908 1153.64957  5.18%   665  251s
   325    99 1205.66434   13    7 1216.63908 1153.64957  5.18%   624  255s
   411    92 1211.81220   16    3 1216.63908 1153.64957  5.18%   586  266s
   461    83 1214.03015   19    2 1216.63908 1153.64957  5.18%   597  272s
   512    76     cutoff   20      1216.63908 1155.98490  4.99%   624  283s
   565    72 1194.72811    9   12 1216.63908 1155.98490  4.99%   655  286s
   619    82     cutoff   10      1216.63908 1155.98490  4.99%   627  293s
   679    59 1182.90229    9   14 1216.63908 1155.98490  4.99%   620  299s
   752    48     cutoff   10      1216.63908 1155.98490  4.99%   591  308s
   803    41     cutoff   10      1216.63908 1163.86157  4.34%   594  312s
   853    16     cutoff    7      1216.63908 1163.86157  4.34%   603  324s
   904    12 1188.82973    9   12 1216.63908 1163.86157  4.34%   591  326s
   932     6     cutoff   11      1216.63908 1169.61344  3.87%   590  330s
   940     8     cutoff    8      1216.63908 1181.04779  2.93%   593  335s

Cutting planes:
  Gomory: 4
  Implied bound: 164
  MIR: 369
  RLT: 2

Explored 974 nodes (580678 simplex iterations) in 339.62 seconds (300.62 work units)
Thread count was 24 (of 32 available processors)

Solution count 5: 1216.64 1247.12 1248.16 ... 6932.82

Optimal solution found (tolerance 1.00e-02)
Best objective 1.216639084129e+03, best bound 1.216639084129e+03, gap 0.0000%

Gurobi 11.0.3 (win64) logging started Thu Sep  5 11:52:28 2024

Set parameter LogFile to value "C:\Users\ealvarezq\Desktop\L.Cont_Investments_per_hour\IEEE118_mod2_ByStages_nc70/openStarNet_IEEE118_mod2_ByStages_nc70.log"
Set parameter Method to value 2
Set parameter MIPFocus to value 1
Set parameter Presolve to value 2
Set parameter RINS to value 100
Set parameter MIPGap to value 0.01
Set parameter Threads to value 24
Set parameter TimeLimit to value 259200
Set parameter IterationLimit to value 760000000
Gurobi Optimizer version 11.0.3 build v11.0.3rc0 (win64 - Windows Server 2019.0 (17763.2))

CPU model: AMD Ryzen Threadripper PRO 3955WX 16-Cores, instruction set [SSE2|AVX|AVX2]
Thread count: 16 physical cores, 32 logical processors, using up to 24 threads

Optimize a model with 99473 rows, 73643 columns and 246926 nonzeros
Model fingerprint: 0x1695b0f6
Coefficient statistics:
  Matrix range     [5e-04, 9e+03]
  Objective range  [1e+00, 1e+00]
  Bounds range     [1e-04, 2e+00]
  RHS range        [1e-04, 2e+02]
Presolve removed 74202 rows and 32529 columns
Presolve time: 0.21s
Presolved: 25271 rows, 41332 columns, 98815 nonzeros

Ordering time: 0.01s

Barrier statistics:
 AA' NZ     : 8.233e+04
 Factor NZ  : 3.317e+05 (roughly 30 MB of memory)
 Factor Ops : 4.780e+06 (less than 1 second per iteration)
 Threads    : 24

                  Objective                Residual
Iter       Primal          Dual         Primal    Dual     Compl     Time
   0   1.67105073e+07 -5.66230813e+08  9.98e+01 2.74e+02  2.70e+04     1s
   1   1.79863889e+06 -1.80934239e+08  9.33e+00 2.27e-12  3.51e+03     1s
   2   5.30116059e+05 -3.34153733e+07  1.91e+00 2.27e-12  5.68e+02     1s
   3   2.11501426e+05 -5.46418654e+06  8.45e-02 1.82e-12  6.72e+01     1s
   4   1.12241778e+05 -8.81550183e+05  5.62e-03 8.19e-12  1.11e+01     1s
   5   5.01732138e+04 -2.34758934e+05  1.51e-03 1.02e-12  3.16e+00     1s
   6   1.41232670e+04 -6.71918338e+04  2.58e-04 5.90e-13  9.00e-01     1s
   7   8.53693438e+03 -2.54936116e+04  1.14e-04 4.33e-13  3.77e-01     1s
   8   6.48372197e+03 -1.00931792e+04  7.42e-05 4.32e-13  1.84e-01     1s
   9   3.61038147e+03 -3.67905711e+03  2.66e-05 5.09e-13  8.07e-02     1s
  10   2.55991122e+03 -4.90723994e+01  1.43e-05 5.48e-13  2.89e-02     1s
  11   1.83447252e+03  5.41154315e+02  6.07e-06 3.70e-13  1.43e-02     1s
  12   1.62180286e+03  8.41230253e+02  3.88e-06 4.27e-13  8.64e-03     1s
  13   1.48096022e+03  9.79063402e+02  2.46e-06 4.15e-13  5.56e-03     1s
  14   1.39929773e+03  1.07384772e+03  1.68e-06 4.79e-13  3.60e-03     1s
  15   1.31658340e+03  1.14277963e+03  8.94e-07 5.69e-13  1.92e-03     1s
  16   1.26262861e+03  1.18745698e+03  4.02e-07 4.62e-13  8.32e-04     1s
  17   1.24091274e+03  1.20288031e+03  2.07e-07 4.77e-13  4.21e-04     1s
  18   1.22855241e+03  1.20895906e+03  9.96e-08 6.07e-13  2.17e-04     1s
  19   1.22099691e+03  1.21240860e+03  3.51e-08 4.02e-13  9.51e-05     1s
  20   1.21753136e+03  1.21509232e+03  6.66e-09 8.83e-13  2.70e-05     1s
  21   1.21676859e+03  1.21652772e+03  8.45e-10 5.43e-13  2.67e-06     1s
  22   1.21664296e+03  1.21662887e+03  8.77e-10 5.28e-13  1.56e-07     1s
  23   1.21663960e+03  1.21663848e+03  1.87e-10 4.96e-13  1.24e-08     1s
  24   1.21663909e+03  1.21663908e+03  1.52e-10 4.07e-13  2.43e-11     1s

Barrier solved model in 24 iterations and 1.47 seconds (0.42 work units)
Optimal objective 1.21663909e+03

Crossover log...

    7265 DPushes remaining with DInf 0.0000000e+00                 2s
       0 DPushes remaining with DInf 0.0000000e+00                 2s

     345 PPushes remaining with PInf 0.0000000e+00                 2s
       0 PPushes remaining with PInf 0.0000000e+00                 2s

  Push phase complete: Pinf 0.0000000e+00, Dinf 3.1898788e-12      2s

Iteration    Objective       Primal Inf.    Dual Inf.      Time
    2032    1.2166391e+03   0.000000e+00   0.000000e+00      2s

Solved in 2032 iterations and 1.87 seconds (0.51 work units)
Optimal objective  1.216639084e+03
